c Shorter CNF template example
c
c This formula was not automatically generated.
c It is completely artificial, typed by hand.
c The purpose of this file is to show larger patricia tree representation while not taking too long process
c and not overwork graphical visualization / presentation of patricia tree.
c
p cnf 00000 00000
1 0
2 0
3 0
4 0
5 0
1 2 0
1 3 0
1 4 0
1 5 0
2 3 0
2 4 0
2 5 0
3 4 0
3 5 0
4 5 0
1 2 3 0
1 2 4 0
1 2 5 0
1 3 4 0
1 3 5 0
1 4 5 0
2 3 4 0
2 3 5 0
2 4 5 0
3 4 5 0
1 2 3 4 0
1 2 3 5 0
2 3 4 5 0
1 2 3 4 5 0